164 96 19 198 2 157 167 93 150 11 89 21 85 17 69 117 80 108 60 41 123 180 45 23 18 144 173 79 190 179 125 182 86 183 55 137 67 91 133 186 49 131 32 5 129 184 189 197 109 156 61 8 142 15 116 31 76 165 163 38 82 77 36 176 124 33 141 44 110 187 103 112 90 88 9 64 199 10 72 191 140 194 136 170 134 121 148 98 128 174 37 100 160 62 84 195 65 40 22 87 106 13 47 28 188 97 122 73 24 14 153 7 63 175 54 119 177 120 172 46 3 168 20 102 162 42 193 104 48 126 132 83 92 99 139 70 105 135 74 146 111 35 66 51 138 166 159 81 29 59 155 25 4 0 196 107 130 71 149 151 6 178 145 50 57 147 161 185 43 158 192 152 101 12 68 53 30 75 113 16 58 26 181 56 115 154 94 171 1 78 27 118 52 114 34 169 39 143 127 95 

